p cnf 260 998
1 2 3 4 5 6 7 8 9 10 0
11 12 13 14 15 16 17 18 19 20 0
21 22 23 24 25 26 27 28 29 30 0
31 32 33 34 35 36 37 38 39 40 0
41 42 43 44 45 46 47 48 49 50 0
51 52 53 54 55 56 57 58 59 60 0
61 62 63 64 65 66 67 68 69 70 0
71 72 73 74 75 76 77 78 79 80 0
81 82 83 84 85 86 87 88 89 90 0
91 92 93 94 95 96 97 98 99 100 0
101 102 103 104 105 106 107 108 109 110 0
111 112 113 114 115 116 117 118 119 120 0
121 122 123 124 125 126 127 128 129 130 0
-1 -11 0
-1 -21 0
-1 -31 0
-1 -41 0
-1 -51 0
-1 -61 0
-1 -71 0
-1 -81 0
-1 -91 0
-1 -101 0
-1 -111 0
-1 -121 0
-11 -21 0
-11 -31 0
-11 -41 0
-11 -51 0
-11 -61 0
-11 -71 0
-11 -81 0
-11 -91 0
-11 -101 0
-11 -111 0
-11 -121 0
-21 -31 0
-21 -41 0
-21 -51 0
-21 -61 0
-21 -71 0
-21 -81 0
-21 -91 0
-21 -101 0
-21 -111 0
-21 -121 0
-31 -41 0
-31 -51 0
-31 -61 0
-31 -71 0
-31 -81 0
-31 -91 0
-31 -101 0
-31 -111 0
-31 -121 0
-41 -51 0
-41 -61 0
-41 -71 0
-41 -81 0
-41 -91 0
-41 -101 0
-41 -111 0
-41 -121 0
-51 -61 0
-51 -71 0
-51 -81 0
-51 -91 0
-51 -101 0
-51 -111 0
-51 -121 0
-61 -71 0
-61 -81 0
-61 -91 0
-61 -101 0
-61 -111 0
-61 -121 0
-71 -81 0
-71 -91 0
-71 -101 0
-71 -111 0
-71 -121 0
-81 -91 0
-81 -101 0
-81 -111 0
-81 -121 0
-91 -101 0
-91 -111 0
-91 -121 0
-101 -111 0
-101 -121 0
-111 -121 0
-2 -12 0
-2 -22 0
-2 -32 0
-2 -42 0
-2 -52 0
-2 -62 0
-2 -72 0
-2 -82 0
-2 -92 0
-2 -102 0
-2 -112 0
-2 -122 0
-12 -22 0
-12 -32 0
-12 -42 0
-12 -52 0
-12 -62 0
-12 -72 0
-12 -82 0
-12 -92 0
-12 -102 0
-12 -112 0
-12 -122 0
-22 -32 0
-22 -42 0
-22 -52 0
-22 -62 0
-22 -72 0
-22 -82 0
-22 -92 0
-22 -102 0
-22 -112 0
-22 -122 0
-32 -42 0
-32 -52 0
-32 -62 0
-32 -72 0
-32 -82 0
-32 -92 0
-32 -102 0
-32 -112 0
-32 -122 0
-42 -52 0
-42 -62 0
-42 -72 0
-42 -82 0
-42 -92 0
-42 -102 0
-42 -112 0
-42 -122 0
-52 -62 0
-52 -72 0
-52 -82 0
-52 -92 0
-52 -102 0
-52 -112 0
-52 -122 0
-62 -72 0
-62 -82 0
-62 -92 0
-62 -102 0
-62 -112 0
-62 -122 0
-72 -82 0
-72 -92 0
-72 -102 0
-72 -112 0
-72 -122 0
-82 -92 0
-82 -102 0
-82 -112 0
-82 -122 0
-92 -102 0
-92 -112 0
-92 -122 0
-102 -112 0
-102 -122 0
-112 -122 0
-3 -13 0
-3 -23 0
-3 -33 0
-3 -43 0
-3 -53 0
-3 -63 0
-3 -73 0
-3 -83 0
-3 -93 0
-3 -103 0
-3 -113 0
-3 -123 0
-13 -23 0
-13 -33 0
-13 -43 0
-13 -53 0
-13 -63 0
-13 -73 0
-13 -83 0
-13 -93 0
-13 -103 0
-13 -113 0
-13 -123 0
-23 -33 0
-23 -43 0
-23 -53 0
-23 -63 0
-23 -73 0
-23 -83 0
-23 -93 0
-23 -103 0
-23 -113 0
-23 -123 0
-33 -43 0
-33 -53 0
-33 -63 0
-33 -73 0
-33 -83 0
-33 -93 0
-33 -103 0
-33 -113 0
-33 -123 0
-43 -53 0
-43 -63 0
-43 -73 0
-43 -83 0
-43 -93 0
-43 -103 0
-43 -113 0
-43 -123 0
-53 -63 0
-53 -73 0
-53 -83 0
-53 -93 0
-53 -103 0
-53 -113 0
-53 -123 0
-63 -73 0
-63 -83 0
-63 -93 0
-63 -103 0
-63 -113 0
-63 -123 0
-73 -83 0
-73 -93 0
-73 -103 0
-73 -113 0
-73 -123 0
-83 -93 0
-83 -103 0
-83 -113 0
-83 -123 0
-93 -103 0
-93 -113 0
-93 -123 0
-103 -113 0
-103 -123 0
-113 -123 0
-4 -14 0
-4 -24 0
-4 -34 0
-4 -44 0
-4 -54 0
-4 -64 0
-4 -74 0
-4 -84 0
-4 -94 0
-4 -104 0
-4 -114 0
-4 -124 0
-14 -24 0
-14 -34 0
-14 -44 0
-14 -54 0
-14 -64 0
-14 -74 0
-14 -84 0
-14 -94 0
-14 -104 0
-14 -114 0
-14 -124 0
-24 -34 0
-24 -44 0
-24 -54 0
-24 -64 0
-24 -74 0
-24 -84 0
-24 -94 0
-24 -104 0
-24 -114 0
-24 -124 0
-34 -44 0
-34 -54 0
-34 -64 0
-34 -74 0
-34 -84 0
-34 -94 0
-34 -104 0
-34 -114 0
-34 -124 0
-44 -54 0
-44 -64 0
-44 -74 0
-44 -84 0
-44 -94 0
-44 -104 0
-44 -114 0
-44 -124 0
-54 -64 0
-54 -74 0
-54 -84 0
-54 -94 0
-54 -104 0
-54 -114 0
-54 -124 0
-64 -74 0
-64 -84 0
-64 -94 0
-64 -104 0
-64 -114 0
-64 -124 0
-74 -84 0
-74 -94 0
-74 -104 0
-74 -114 0
-74 -124 0
-84 -94 0
-84 -104 0
-84 -114 0
-84 -124 0
-94 -104 0
-94 -114 0
-94 -124 0
-104 -114 0
-104 -124 0
-114 -124 0
-5 -15 0
-5 -25 0
-5 -35 0
-5 -45 0
-5 -55 0
-5 -65 0
-5 -75 0
-5 -85 0
-5 -95 0
-5 -105 0
-5 -115 0
-5 -125 0
-15 -25 0
-15 -35 0
-15 -45 0
-15 -55 0
-15 -65 0
-15 -75 0
-15 -85 0
-15 -95 0
-15 -105 0
-15 -115 0
-15 -125 0
-25 -35 0
-25 -45 0
-25 -55 0
-25 -65 0
-25 -75 0
-25 -85 0
-25 -95 0
-25 -105 0
-25 -115 0
-25 -125 0
-35 -45 0
-35 -55 0
-35 -65 0
-35 -75 0
-35 -85 0
-35 -95 0
-35 -105 0
-35 -115 0
-35 -125 0
-45 -55 0
-45 -65 0
-45 -75 0
-45 -85 0
-45 -95 0
-45 -105 0
-45 -115 0
-45 -125 0
-55 -65 0
-55 -75 0
-55 -85 0
-55 -95 0
-55 -105 0
-55 -115 0
-55 -125 0
-65 -75 0
-65 -85 0
-65 -95 0
-65 -105 0
-65 -115 0
-65 -125 0
-75 -85 0
-75 -95 0
-75 -105 0
-75 -115 0
-75 -125 0
-85 -95 0
-85 -105 0
-85 -115 0
-85 -125 0
-95 -105 0
-95 -115 0
-95 -125 0
-105 -115 0
-105 -125 0
-115 -125 0
-6 -16 0
-6 -26 0
-6 -36 0
-6 -46 0
-6 -56 0
-6 -66 0
-6 -76 0
-6 -86 0
-6 -96 0
-6 -106 0
-6 -116 0
-6 -126 0
-16 -26 0
-16 -36 0
-16 -46 0
-16 -56 0
-16 -66 0
-16 -76 0
-16 -86 0
-16 -96 0
-16 -106 0
-16 -116 0
-16 -126 0
-26 -36 0
-26 -46 0
-26 -56 0
-26 -66 0
-26 -76 0
-26 -86 0
-26 -96 0
-26 -106 0
-26 -116 0
-26 -126 0
-36 -46 0
-36 -56 0
-36 -66 0
-36 -76 0
-36 -86 0
-36 -96 0
-36 -106 0
-36 -116 0
-36 -126 0
-46 -56 0
-46 -66 0
-46 -76 0
-46 -86 0
-46 -96 0
-46 -106 0
-46 -116 0
-46 -126 0
-56 -66 0
-56 -76 0
-56 -86 0
-56 -96 0
-56 -106 0
-56 -116 0
-56 -126 0
-66 -76 0
-66 -86 0
-66 -96 0
-66 -106 0
-66 -116 0
-66 -126 0
-76 -86 0
-76 -96 0
-76 -106 0
-76 -116 0
-76 -126 0
-86 -96 0
-86 -106 0
-86 -116 0
-86 -126 0
-96 -106 0
-96 -116 0
-96 -126 0
-106 -116 0
-106 -126 0
-116 -126 0
-7 -17 0
-7 -27 0
-7 -37 0
-7 -47 0
-7 -57 0
-7 -67 0
-7 -77 0
-7 -87 0
-7 -97 0
-7 -107 0
-7 -117 0
-7 -127 0
-17 -27 0
-17 -37 0
-17 -47 0
-17 -57 0
-17 -67 0
-17 -77 0
-17 -87 0
-17 -97 0
-17 -107 0
-17 -117 0
-17 -127 0
-27 -37 0
-27 -47 0
-27 -57 0
-27 -67 0
-27 -77 0
-27 -87 0
-27 -97 0
-27 -107 0
-27 -117 0
-27 -127 0
-37 -47 0
-37 -57 0
-37 -67 0
-37 -77 0
-37 -87 0
-37 -97 0
-37 -107 0
-37 -117 0
-37 -127 0
-47 -57 0
-47 -67 0
-47 -77 0
-47 -87 0
-47 -97 0
-47 -107 0
-47 -117 0
-47 -127 0
-57 -67 0
-57 -77 0
-57 -87 0
-57 -97 0
-57 -107 0
-57 -117 0
-57 -127 0
-67 -77 0
-67 -87 0
-67 -97 0
-67 -107 0
-67 -117 0
-67 -127 0
-77 -87 0
-77 -97 0
-77 -107 0
-77 -117 0
-77 -127 0
-87 -97 0
-87 -107 0
-87 -117 0
-87 -127 0
-97 -107 0
-97 -117 0
-97 -127 0
-107 -117 0
-107 -127 0
-117 -127 0
-8 -18 0
-8 -28 0
-8 -38 0
-8 -48 0
-8 -58 0
-8 -68 0
-8 -78 0
-8 -88 0
-8 -98 0
-8 -108 0
-8 -118 0
-8 -128 0
-18 -28 0
-18 -38 0
-18 -48 0
-18 -58 0
-18 -68 0
-18 -78 0
-18 -88 0
-18 -98 0
-18 -108 0
-18 -118 0
-18 -128 0
-28 -38 0
-28 -48 0
-28 -58 0
-28 -68 0
-28 -78 0
-28 -88 0
-28 -98 0
-28 -108 0
-28 -118 0
-28 -128 0
-38 -48 0
-38 -58 0
-38 -68 0
-38 -78 0
-38 -88 0
-38 -98 0
-38 -108 0
-38 -118 0
-38 -128 0
-48 -58 0
-48 -68 0
-48 -78 0
-48 -88 0
-48 -98 0
-48 -108 0
-48 -118 0
-48 -128 0
-58 -68 0
-58 -78 0
-58 -88 0
-58 -98 0
-58 -108 0
-58 -118 0
-58 -128 0
-68 -78 0
-68 -88 0
-68 -98 0
-68 -108 0
-68 -118 0
-68 -128 0
-78 -88 0
-78 -98 0
-78 -108 0
-78 -118 0
-78 -128 0
-88 -98 0
-88 -108 0
-88 -118 0
-88 -128 0
-98 -108 0
-98 -118 0
-98 -128 0
-108 -118 0
-108 -128 0
-118 -128 0
-9 -19 0
-9 -29 0
-9 -39 0
-9 -49 0
-9 -59 0
-9 -69 0
-9 -79 0
-9 -89 0
-9 -99 0
-9 -109 0
-9 -119 0
-9 -129 0
-19 -29 0
-19 -39 0
-19 -49 0
-19 -59 0
-19 -69 0
-19 -79 0
-19 -89 0
-19 -99 0
-19 -109 0
-19 -119 0
-19 -129 0
-29 -39 0
-29 -49 0
-29 -59 0
-29 -69 0
-29 -79 0
-29 -89 0
-29 -99 0
-29 -109 0
-29 -119 0
-29 -129 0
-39 -49 0
-39 -59 0
-39 -69 0
-39 -79 0
-39 -89 0
-39 -99 0
-39 -109 0
-39 -119 0
-39 -129 0
-49 -59 0
-49 -69 0
-49 -79 0
-49 -89 0
-49 -99 0
-49 -109 0
-49 -119 0
-49 -129 0
-59 -69 0
-59 -79 0
-59 -89 0
-59 -99 0
-59 -109 0
-59 -119 0
-59 -129 0
-69 -79 0
-69 -89 0
-69 -99 0
-69 -109 0
-69 -119 0
-69 -129 0
-79 -89 0
-79 -99 0
-79 -109 0
-79 -119 0
-79 -129 0
-89 -99 0
-89 -109 0
-89 -119 0
-89 -129 0
-99 -109 0
-99 -119 0
-99 -129 0
-109 -119 0
-109 -129 0
-119 -129 0
-10 -20 0
-10 -30 0
-10 -40 0
-10 -50 0
-10 -60 0
-10 -70 0
-10 -80 0
-10 -90 0
-10 -100 0
-10 -110 0
-10 -120 0
-10 -130 0
-20 -30 0
-20 -40 0
-20 -50 0
-20 -60 0
-20 -70 0
-20 -80 0
-20 -90 0
-20 -100 0
-20 -110 0
-20 -120 0
-20 -130 0
-30 -40 0
-30 -50 0
-30 -60 0
-30 -70 0
-30 -80 0
-30 -90 0
-30 -100 0
-30 -110 0
-30 -120 0
-30 -130 0
-40 -50 0
-40 -60 0
-40 -70 0
-40 -80 0
-40 -90 0
-40 -100 0
-40 -110 0
-40 -120 0
-40 -130 0
-50 -60 0
-50 -70 0
-50 -80 0
-50 -90 0
-50 -100 0
-50 -110 0
-50 -120 0
-50 -130 0
-60 -70 0
-60 -80 0
-60 -90 0
-60 -100 0
-60 -110 0
-60 -120 0
-60 -130 0
-70 -80 0
-70 -90 0
-70 -100 0
-70 -110 0
-70 -120 0
-70 -130 0
-80 -90 0
-80 -100 0
-80 -110 0
-80 -120 0
-80 -130 0
-90 -100 0
-90 -110 0
-90 -120 0
-90 -130 0
-100 -110 0
-100 -120 0
-100 -130 0
-110 -120 0
-110 -130 0
-120 -130 0
131 132 133 134 135 136 137 138 139 140 0
141 142 143 144 145 146 147 148 149 150 0
151 152 153 154 155 156 157 158 159 160 0
161 162 163 164 165 166 167 168 169 170 0
171 172 173 174 175 176 177 178 179 180 0
181 182 183 184 185 186 187 188 189 190 0
191 192 193 194 195 196 197 198 199 200 0
201 202 203 204 205 206 207 208 209 210 0
211 212 213 214 215 216 217 218 219 220 0
221 222 223 224 225 226 227 228 229 230 0
231 232 233 234 235 236 237 238 239 240 0
241 242 243 244 245 246 247 248 249 250 0
251 252 253 254 255 256 257 258 259 260 0
-131 -141 0
-131 -151 0
-131 -161 0
-131 -171 0
-131 -181 0
-131 -191 0
-131 -201 0
-131 -211 0
-131 -221 0
-131 -231 0
-131 -241 0
-131 -251 0
-141 -151 0
-141 -161 0
-141 -171 0
-141 -181 0
-141 -191 0
-141 -201 0
-141 -211 0
-141 -221 0
-141 -231 0
-141 -241 0
-141 -251 0
-151 -161 0
-151 -171 0
-151 -181 0
-151 -191 0
-151 -201 0
-151 -211 0
-151 -221 0
-151 -231 0
-151 -241 0
-151 -251 0
-161 -171 0
-161 -181 0
-161 -191 0
-161 -201 0
-161 -211 0
-161 -221 0
-161 -231 0
-161 -241 0
-161 -251 0
-171 -181 0
-171 -191 0
-171 -201 0
-171 -211 0
-171 -221 0
-171 -231 0
-171 -241 0
-171 -251 0
-181 -191 0
-181 -201 0
-181 -211 0
-181 -221 0
-181 -231 0
-181 -241 0
-181 -251 0
-191 -201 0
-191 -211 0
-191 -221 0
-191 -231 0
-191 -241 0
-191 -251 0
-201 -211 0
-201 -221 0
-201 -231 0
-201 -241 0
-201 -251 0
-211 -221 0
-211 -231 0
-211 -241 0
-211 -251 0
-221 -231 0
-221 -241 0
-221 -251 0
-231 -241 0
-231 -251 0
-241 -251 0
-132 -142 0
-132 -152 0
-132 -162 0
-132 -172 0
-132 -182 0
-132 -192 0
-132 -202 0
-132 -212 0
-132 -222 0
-132 -232 0
-132 -242 0
-132 -252 0
-142 -152 0
-142 -162 0
-142 -172 0
-142 -182 0
-142 -192 0
-142 -202 0
-142 -212 0
-142 -222 0
-142 -232 0
-142 -242 0
-142 -252 0
-152 -162 0
-152 -172 0
-152 -182 0
-152 -192 0
-152 -202 0
-152 -212 0
-152 -222 0
-152 -232 0
-152 -242 0
-152 -252 0
-162 -172 0
-162 -182 0
-162 -192 0
-162 -202 0
-162 -212 0
-162 -222 0
-162 -232 0
-162 -242 0
-162 -252 0
-172 -182 0
-172 -192 0
-172 -202 0
-172 -212 0
-172 -222 0
-172 -232 0
-172 -242 0
-172 -252 0
-182 -192 0
-182 -202 0
-182 -212 0
-182 -222 0
-182 -232 0
-182 -242 0
-182 -252 0
-192 -202 0
-192 -212 0
-192 -222 0
-192 -232 0
-192 -242 0
-192 -252 0
-202 -212 0
-202 -222 0
-202 -232 0
-202 -242 0
-202 -252 0
-212 -222 0
-212 -232 0
-212 -242 0
-212 -252 0
-222 -232 0
-222 -242 0
-222 -252 0
-232 -242 0
-232 -252 0
-242 -252 0
-133 -143 0
-133 -153 0
-133 -163 0
-133 -173 0
-133 -183 0
-133 -193 0
-133 -203 0
-133 -213 0
-133 -223 0
-133 -233 0
-133 -243 0
-133 -253 0
-143 -153 0
-143 -163 0
-143 -173 0
-143 -183 0
-143 -193 0
-143 -203 0
-143 -213 0
-143 -223 0
-143 -233 0
-143 -243 0
-143 -253 0
-153 -163 0
-153 -173 0
-153 -183 0
-153 -193 0
-153 -203 0
-153 -213 0
-153 -223 0
-153 -233 0
-153 -243 0
-153 -253 0
-163 -173 0
-163 -183 0
-163 -193 0
